20677.2
20677.2
20677.2
20677.2
20664.5
20664.5
20395.7
20128.3
20128.3
20099.6
19622.4
19622.4
19622.4
19622.4
19622.4
19488
19355.7
19355.7
19168.2
19036.4
19036.4
18805
18805
18805
18784.1
18709
18261.6
18261.6
18193.7
18193.7
18193.7
18063.2
18023.1
17926.4
17926.4
17865.5
17865.5
17865.5
17799.7
17729.4
17647.8
17605.9
17568.8
17568.8
17560.8
17243.2
17045.6
17045.6
17045.6
17045.6
17045.6
17045.6
17045.6
17045.6
17045.6
16889.2
16837.1
16767.1
16690.7
16599.9
16599.9
16599.9
16524.3
16524.3
16524.3
16524.3
16524.3
16494.8
16494.8
16494.8
16494.8
16494.8
16317.5
16317.5
16317.5
16275
16275
16275
16209.4
15992.1
15992.1
15992.1
15992.1
15841.3
15841.3
15841.3
15716
15716
15672.9
15672.9
15672.9
15672.9
15573.4
15545.4
15545.4
15545.4
15529.1
15529.1
15529.1
15433.9
